c ind 107 11 110 113 12 129 132 14 148 15 0
c ind 151 168 171 178 189 195 197 199 201 21 0
c ind 224 23 230 25 27 29 67 70 86 91 0
c ind 94 0
p cnf 241 915
-1 2 0
-1 222 0
-10 -11 12 0
-10 -12 11 0
-100 -55 93 0
-100 55 101 0
-101 -58 93 0
-101 58 102 0
-102 -61 93 0
-102 61 103 0
-103 -63 93 0
-103 63 104 0
-104 -83 105 0
-104 83 85 0
-105 -106 85 0
-105 106 93 0
-106 -107 12 0
-106 -12 107 0
-108 -10 109 0
-108 10 111 0
-109 -110 15 0
-109 -15 110 0
-111 -17 112 0
-111 17 114 0
-112 -110 113 0
-112 -113 110 0
-114 -31 112 0
-114 31 115 0
-115 -36 112 0
-115 36 116 0
-116 -41 112 0
-116 41 117 0
-117 -45 112 0
-117 45 118 0
-118 -49 112 0
-118 49 119 0
-119 -52 112 0
-119 52 120 0
-120 -55 112 0
-120 55 121 0
-121 -58 122 0
-121 58 123 0
-122 -110 12 0
-122 -12 110 0
-123 -61 112 0
-123 61 124 0
-124 -63 112 0
-124 63 125 0
-125 -83 126 0
-125 83 109 0
-126 -106 109 0
-126 106 112 0
-127 -10 128 0
-127 10 130 0
-128 -129 15 0
-128 -15 129 0
-13 -14 15 0
-13 -15 14 0
-130 -17 131 0
-130 17 133 0
-131 -129 132 0
-131 -132 129 0
-133 -31 131 0
-133 31 134 0
-134 -36 131 0
-134 36 135 0
-135 -41 136 0
-135 41 137 0
-136 -12 129 0
-136 -129 12 0
-137 -45 131 0
-137 45 138 0
-138 -49 131 0
-138 49 139 0
-139 -52 140 0
-139 52 141 0
-140 -106 128 0
-140 106 131 0
-141 -55 131 0
-141 55 142 0
-142 -58 131 0
-142 58 143 0
-143 -61 131 0
-143 61 144 0
-144 -63 131 0
-144 63 145 0
-145 -83 131 0
-145 83 128 0
-146 -10 147 0
-146 10 149 0
-147 -148 15 0
-147 -15 148 0
-149 -17 150 0
-149 17 152 0
-15 0
-150 -148 151 0
-150 -151 148 0
-152 -31 153 0
-152 31 155 0
-153 -90 154 0
-153 90 150 0
-154 -12 148 0
-154 -148 12 0
-155 -36 147 0
-155 36 156 0
-156 -41 150 0
-156 41 157 0
-157 -45 150 0
-157 45 158 0
-158 -49 150 0
-158 49 159 0
-159 -52 160 0
-159 52 161 0
-16 -17 28 0
-16 17 30 0
-160 -106 154 0
-160 106 150 0
-161 -55 147 0
-161 55 162 0
-162 -58 150 0
-162 58 163 0
-163 -61 150 0
-163 61 164 0
-164 -63 150 0
-164 63 165 0
-165 -83 150 0
-165 83 147 0
-166 -10 167 0
-166 10 169 0
-167 -15 168 0
-167 -168 15 0
-169 -17 170 0
-169 17 172 0
-17 18 0
-17 26 0
-170 -168 171 0
-170 -171 168 0
-172 -31 170 0
-172 31 173 0
-173 -36 170 0
-173 36 174 0
-174 -41 170 0
-174 41 175 0
-175 -45 176 0
-175 45 180 0
-176 -177 179 0
-176 177 170 0
-177 -12 178 0
-177 -178 12 0
-179 -12 168 0
-179 -168 12 0
-18 19 0
-18 24 0
-180 -49 167 0
-180 49 181 0
-181 -52 170 0
-181 52 182 0
-182 -55 170 0
-182 55 183 0
-183 -58 170 0
-183 58 184 0
-184 -61 176 0
-184 61 185 0
-185 -63 167 0
-185 63 186 0
-186 -83 170 0
-186 83 167 0
-187 -10 188 0
-187 10 190 0
-188 -15 189 0
-188 -189 15 0
-19 20 0
-19 22 0
-190 -191 202 0
-190 191 203 0
-191 192 0
-191 200 0
-192 193 0
-192 198 0
-193 194 0
-193 196 0
-194 -15 195 0
-194 -195 15 0
-196 -15 197 0
-196 -197 15 0
-198 -15 199 0
-198 -199 15 0
-2 187 0
-2 3 0
-20 -15 21 0
-20 -21 15 0
-200 -15 201 0
-200 -201 15 0
-202 -189 91 0
-202 -91 189 0
-203 -204 202 0
-203 204 208 0
-204 200 0
-204 205 0
-205 198 0
-205 206 0
-206 194 0
-206 207 0
-207 -12 197 0
-207 -197 12 0
-208 -209 202 0
-208 209 212 0
-209 200 0
-209 210 0
-210 193 0
-210 211 0
-211 -12 199 0
-211 -199 12 0
-212 -213 217 0
-212 213 218 0
-213 200 0
-213 214 0
-214 198 0
-214 215 0
-215 207 0
-215 216 0
-216 -12 195 0
-216 -195 12 0
-217 -12 189 0
-217 -189 12 0
-218 -219 188 0
-218 219 202 0
-219 200 0
-219 220 0
-22 -15 23 0
-22 -23 15 0
-220 198 0
-220 221 0
-221 196 0
-221 216 0
-222 -10 223 0
-222 10 225 0
-223 -15 224 0
-223 -224 15 0
-225 -17 223 0
-225 17 226 0
-226 -31 227 0
-226 31 231 0
-227 -90 228 0
-227 90 229 0
-228 -12 224 0
-228 -224 12 0
-229 -224 230 0
-229 -230 224 0
-231 -36 229 0
-231 36 232 0
-232 -41 229 0
-232 41 233 0
-233 -45 229 0
-233 45 234 0
-234 -49 229 0
-234 49 235 0
-235 -52 229 0
-235 52 236 0
-236 -55 229 0
-236 55 237 0
-237 -58 229 0
-237 58 238 0
-238 -61 229 0
-238 61 239 0
-239 -63 229 0
-239 63 240 0
-24 -15 25 0
-24 -25 15 0
-240 -83 241 0
-240 83 223 0
-241 -106 223 0
-241 106 229 0
-26 -15 27 0
-26 -27 15 0
-28 -14 29 0
-28 -29 14 0
-3 166 0
-3 4 0
-30 -31 28 0
-30 31 35 0
-31 26 0
-31 32 0
-32 24 0
-32 33 0
-33 22 0
-33 34 0
-34 -12 21 0
-34 -21 12 0
-35 -36 28 0
-35 36 40 0
-36 26 0
-36 37 0
-37 24 0
-37 38 0
-38 20 0
-38 39 0
-39 -12 23 0
-39 -23 12 0
-4 146 0
-4 5 0
-40 -41 28 0
-40 41 44 0
-41 26 0
-41 42 0
-42 24 0
-42 43 0
-43 34 0
-43 39 0
-44 -45 28 0
-44 45 48 0
-45 26 0
-45 46 0
-46 19 0
-46 47 0
-47 -12 25 0
-47 -25 12 0
-48 -49 28 0
-48 49 51 0
-49 26 0
-49 50 0
-5 127 0
-5 6 0
-50 33 0
-50 47 0
-51 -52 28 0
-51 52 54 0
-52 37 0
-52 53 0
-53 -12 27 0
-53 -27 12 0
-54 -55 28 0
-54 55 57 0
-55 26 0
-55 56 0
-56 38 0
-56 47 0
-57 -58 28 0
-57 58 60 0
-58 26 0
-58 59 0
-59 43 0
-59 47 0
-6 108 0
-6 7 0
-60 -61 28 0
-60 61 62 0
-61 18 0
-61 53 0
-62 -63 64 0
-62 63 13 0
-63 32 0
-63 53 0
-64 -12 14 0
-64 -14 12 0
-65 -10 66 0
-65 10 68 0
-66 -15 67 0
-66 -67 15 0
-68 -17 69 0
-68 17 71 0
-69 -67 70 0
-69 -70 67 0
-7 8 0
-7 84 0
-71 -31 69 0
-71 31 72 0
-72 -36 69 0
-72 36 73 0
-73 -41 69 0
-73 41 74 0
-74 -45 69 0
-74 45 75 0
-75 -49 76 0
-75 49 77 0
-76 -12 67 0
-76 -67 12 0
-77 -52 66 0
-77 52 78 0
-78 -55 69 0
-78 55 79 0
-79 -58 69 0
-79 58 80 0
-8 65 0
-8 9 0
-80 -61 69 0
-80 61 81 0
-81 -63 69 0
-81 63 82 0
-82 -83 69 0
-82 83 66 0
-83 42 0
-83 53 0
-84 -10 85 0
-84 10 87 0
-85 -12 86 0
-85 -86 12 0
-87 -17 85 0
-87 17 88 0
-88 -31 89 0
-88 31 95 0
-89 -90 92 0
-89 90 93 0
-9 -10 13 0
-9 10 16 0
-90 -12 91 0
-90 -91 12 0
-92 -15 86 0
-92 -86 15 0
-93 -86 94 0
-93 -94 86 0
-95 -36 93 0
-95 36 96 0
-96 -41 93 0
-96 41 97 0
-97 -45 93 0
-97 45 98 0
-98 -49 93 0
-98 49 99 0
-99 -52 93 0
-99 52 100 0
1 -2 -222 0
1 0
10 -11 -12 0
10 11 12 0
100 -55 -93 0
100 -93 -101 0
100 55 -101 0
101 -58 -93 0
101 -93 -102 0
101 58 -102 0
102 -61 -93 0
102 -93 -103 0
102 61 -103 0
103 -63 -93 0
103 -93 -104 0
103 63 -104 0
104 -105 -85 0
104 -83 -105 0
104 83 -85 0
105 -106 -85 0
105 -85 -93 0
105 106 -93 0
106 -107 -12 0
106 107 12 0
108 -10 -109 0
108 -109 -111 0
108 10 -111 0
109 -110 -15 0
109 110 15 0
111 -112 -114 0
111 -17 -112 0
111 17 -114 0
112 -110 -113 0
112 110 113 0
114 -112 -115 0
114 -31 -112 0
114 31 -115 0
115 -112 -116 0
115 -36 -112 0
115 36 -116 0
116 -112 -117 0
116 -41 -112 0
116 41 -117 0
117 -112 -118 0
117 -45 -112 0
117 45 -118 0
118 -112 -119 0
118 -49 -112 0
118 49 -119 0
119 -112 -120 0
119 -52 -112 0
119 52 -120 0
12 0
120 -112 -121 0
120 -55 -112 0
120 55 -121 0
121 -122 -123 0
121 -58 -122 0
121 58 -123 0
122 -110 -12 0
122 110 12 0
123 -112 -124 0
123 -61 -112 0
123 61 -124 0
124 -112 -125 0
124 -63 -112 0
124 63 -125 0
125 -126 -109 0
125 -83 -126 0
125 83 -109 0
126 -106 -109 0
126 -109 -112 0
126 106 -112 0
127 -10 -128 0
127 -128 -130 0
127 10 -130 0
128 -129 -15 0
128 129 15 0
13 -14 -15 0
13 14 15 0
130 -131 -133 0
130 -17 -131 0
130 17 -133 0
131 -129 -132 0
131 129 132 0
133 -131 -134 0
133 -31 -131 0
133 31 -134 0
134 -131 -135 0
134 -36 -131 0
134 36 -135 0
135 -136 -137 0
135 -41 -136 0
135 41 -137 0
136 -129 -12 0
136 129 12 0
137 -131 -138 0
137 -45 -131 0
137 45 -138 0
138 -131 -139 0
138 -49 -131 0
138 49 -139 0
139 -140 -141 0
139 -52 -140 0
139 52 -141 0
140 -106 -128 0
140 -128 -131 0
140 106 -131 0
141 -131 -142 0
141 -55 -131 0
141 55 -142 0
142 -131 -143 0
142 -58 -131 0
142 58 -143 0
143 -131 -144 0
143 -61 -131 0
143 61 -144 0
144 -131 -145 0
144 -63 -131 0
144 63 -145 0
145 -131 -128 0
145 -83 -131 0
145 83 -128 0
146 -10 -147 0
146 -147 -149 0
146 10 -149 0
147 -148 -15 0
147 148 15 0
149 -150 -152 0
149 -17 -150 0
149 17 -152 0
150 -148 -151 0
150 148 151 0
152 -153 -155 0
152 -31 -153 0
152 31 -155 0
153 -154 -150 0
153 -90 -154 0
153 90 -150 0
154 -148 -12 0
154 148 12 0
155 -147 -156 0
155 -36 -147 0
155 36 -156 0
156 -150 -157 0
156 -41 -150 0
156 41 -157 0
157 -150 -158 0
157 -45 -150 0
157 45 -158 0
158 -150 -159 0
158 -49 -150 0
158 49 -159 0
159 -160 -161 0
159 -52 -160 0
159 52 -161 0
16 -17 -28 0
16 -28 -30 0
16 17 -30 0
160 -106 -154 0
160 -154 -150 0
160 106 -150 0
161 -147 -162 0
161 -55 -147 0
161 55 -162 0
162 -150 -163 0
162 -58 -150 0
162 58 -163 0
163 -150 -164 0
163 -61 -150 0
163 61 -164 0
164 -150 -165 0
164 -63 -150 0
164 63 -165 0
165 -150 -147 0
165 -83 -150 0
165 83 -147 0
166 -10 -167 0
166 -167 -169 0
166 10 -169 0
167 -168 -15 0
167 168 15 0
169 -17 -170 0
169 -170 -172 0
169 17 -172 0
17 -18 -26 0
170 -168 -171 0
170 168 171 0
172 -170 -173 0
172 -31 -170 0
172 31 -173 0
173 -170 -174 0
173 -36 -170 0
173 36 -174 0
174 -170 -175 0
174 -41 -170 0
174 41 -175 0
175 -176 -180 0
175 -45 -176 0
175 45 -180 0
176 -177 -179 0
176 -179 -170 0
176 177 -170 0
177 -178 -12 0
177 178 12 0
179 -168 -12 0
179 168 12 0
18 -19 -24 0
180 -167 -181 0
180 -49 -167 0
180 49 -181 0
181 -170 -182 0
181 -52 -170 0
181 52 -182 0
182 -170 -183 0
182 -55 -170 0
182 55 -183 0
183 -170 -184 0
183 -58 -170 0
183 58 -184 0
184 -176 -185 0
184 -61 -176 0
184 61 -185 0
185 -167 -186 0
185 -63 -167 0
185 63 -186 0
186 -170 -167 0
186 -83 -170 0
186 83 -167 0
187 -10 -188 0
187 -188 -190 0
187 10 -190 0
188 -189 -15 0
188 189 15 0
19 -20 -22 0
190 -191 -202 0
190 -202 -203 0
190 191 -203 0
191 -192 -200 0
192 -193 -198 0
193 -194 -196 0
194 -195 -15 0
194 195 15 0
196 -197 -15 0
196 197 15 0
198 -199 -15 0
198 199 15 0
2 -3 -187 0
20 -21 -15 0
20 21 15 0
200 -201 -15 0
200 201 15 0
202 -189 -91 0
202 189 91 0
203 -202 -208 0
203 -204 -202 0
203 204 -208 0
204 -205 -200 0
205 -206 -198 0
206 -194 -207 0
207 -197 -12 0
207 197 12 0
208 -202 -212 0
208 -209 -202 0
208 209 -212 0
209 -210 -200 0
210 -193 -211 0
211 -199 -12 0
211 199 12 0
212 -213 -217 0
212 -217 -218 0
212 213 -218 0
213 -214 -200 0
214 -215 -198 0
215 -216 -207 0
216 -195 -12 0
216 195 12 0
217 -189 -12 0
217 189 12 0
218 -188 -202 0
218 -219 -188 0
218 219 -202 0
219 -220 -200 0
22 -23 -15 0
22 23 15 0
220 -221 -198 0
221 -216 -196 0
222 -10 -223 0
222 -223 -225 0
222 10 -225 0
223 -224 -15 0
223 224 15 0
225 -17 -223 0
225 -223 -226 0
225 17 -226 0
226 -227 -231 0
226 -31 -227 0
226 31 -231 0
227 -228 -229 0
227 -90 -228 0
227 90 -229 0
228 -224 -12 0
228 224 12 0
229 -224 -230 0
229 224 230 0
231 -229 -232 0
231 -36 -229 0
231 36 -232 0
232 -229 -233 0
232 -41 -229 0
232 41 -233 0
233 -229 -234 0
233 -45 -229 0
233 45 -234 0
234 -229 -235 0
234 -49 -229 0
234 49 -235 0
235 -229 -236 0
235 -52 -229 0
235 52 -236 0
236 -229 -237 0
236 -55 -229 0
236 55 -237 0
237 -229 -238 0
237 -58 -229 0
237 58 -238 0
238 -229 -239 0
238 -61 -229 0
238 61 -239 0
239 -229 -240 0
239 -63 -229 0
239 63 -240 0
24 -25 -15 0
24 25 15 0
240 -241 -223 0
240 -83 -241 0
240 83 -223 0
241 -106 -223 0
241 -223 -229 0
241 106 -229 0
26 -27 -15 0
26 27 15 0
28 -14 -29 0
28 14 29 0
3 -4 -166 0
30 -28 -35 0
30 -31 -28 0
30 31 -35 0
31 -32 -26 0
32 -33 -24 0
33 -34 -22 0
34 -21 -12 0
34 21 12 0
35 -28 -40 0
35 -36 -28 0
35 36 -40 0
36 -37 -26 0
37 -38 -24 0
38 -20 -39 0
39 -23 -12 0
39 23 12 0
4 -5 -146 0
40 -28 -44 0
40 -41 -28 0
40 41 -44 0
41 -42 -26 0
42 -43 -24 0
43 -34 -39 0
44 -28 -48 0
44 -45 -28 0
44 45 -48 0
45 -46 -26 0
46 -19 -47 0
47 -25 -12 0
47 25 12 0
48 -28 -51 0
48 -49 -28 0
48 49 -51 0
49 -50 -26 0
5 -6 -127 0
50 -33 -47 0
51 -28 -54 0
51 -52 -28 0
51 52 -54 0
52 -37 -53 0
53 -27 -12 0
53 27 12 0
54 -28 -57 0
54 -55 -28 0
54 55 -57 0
55 -56 -26 0
56 -38 -47 0
57 -28 -60 0
57 -58 -28 0
57 58 -60 0
58 -59 -26 0
59 -43 -47 0
6 -7 -108 0
60 -28 -62 0
60 -61 -28 0
60 61 -62 0
61 -18 -53 0
62 -63 -64 0
62 -64 -13 0
62 63 -13 0
63 -32 -53 0
64 -14 -12 0
64 14 12 0
65 -10 -66 0
65 -66 -68 0
65 10 -68 0
66 -67 -15 0
66 67 15 0
68 -17 -69 0
68 -69 -71 0
68 17 -71 0
69 -67 -70 0
69 67 70 0
7 -8 -84 0
71 -31 -69 0
71 -69 -72 0
71 31 -72 0
72 -36 -69 0
72 -69 -73 0
72 36 -73 0
73 -41 -69 0
73 -69 -74 0
73 41 -74 0
74 -45 -69 0
74 -69 -75 0
74 45 -75 0
75 -49 -76 0
75 -76 -77 0
75 49 -77 0
76 -67 -12 0
76 67 12 0
77 -52 -66 0
77 -66 -78 0
77 52 -78 0
78 -55 -69 0
78 -69 -79 0
78 55 -79 0
79 -58 -69 0
79 -69 -80 0
79 58 -80 0
8 -9 -65 0
80 -61 -69 0
80 -69 -81 0
80 61 -81 0
81 -63 -69 0
81 -69 -82 0
81 63 -82 0
82 -69 -66 0
82 -83 -69 0
82 83 -66 0
83 -42 -53 0
84 -10 -85 0
84 -85 -87 0
84 10 -87 0
85 -86 -12 0
85 86 12 0
87 -17 -85 0
87 -85 -88 0
87 17 -88 0
88 -31 -89 0
88 -89 -95 0
88 31 -95 0
89 -90 -92 0
89 -92 -93 0
89 90 -93 0
9 -10 -13 0
9 -13 -16 0
9 10 -16 0
90 -91 -12 0
90 91 12 0
92 -86 -15 0
92 86 15 0
93 -86 -94 0
93 86 94 0
95 -36 -93 0
95 -93 -96 0
95 36 -96 0
96 -41 -93 0
96 -93 -97 0
96 41 -97 0
97 -45 -93 0
97 -93 -98 0
97 45 -98 0
98 -49 -93 0
98 -93 -99 0
98 49 -99 0
99 -52 -93 0
99 -93 -100 0
99 52 -100 0
